2 10
111 87 
0 77 85 9 3 46 2 2
1 98 97 24 32 18 52 2
2 91 91 55 62 30 5 2
3 80 88 39 43 20 21 1
4 18 25 72 76 14 96 2
5 39 31 94 85 63 62 2
6 9 14 51 41 53 91 1
7 42 37 72 75 42 44 1
8 34 30 6 5 57 41 1
9 54 59 5 14 79 76 1
